param n := 120;
param c := 1000;
param : V : p w :=
   0	  82	 357
   1	  87	 271
   2	  71	 372
   3	  82	 481
   4	  74	 251
   5	  28	 268
   6	  71	 429
   7	  46	 285
   8	  38	 286
   9	  35	 454
  10	  83	 257
  11	  29	 289
  12	  61	 398
  13	  47	 268
  14	  90	 334
  15	   3	 382
  16	  44	 264
  17	  99	 354
  18	  14	 427
  19	  46	 251
  20	  46	 322
  21	  12	 476
  22	  64	 251
  23	  21	 273
  24	  14	 364
  25	  37	 276
  26	  11	 360
  27	  30	 406
  28	  19	 290
  29	  46	 304
  30	  52	 351
  31	  39	 280
  32	  41	 369
  33	  82	 418
  34	   5	 270
  35	 100	 312
  36	  37	 375
  37	  72	 309
  38	  23	 316
  39	  29	 411
  40	  33	 288
  41	   1	 301
  42	  92	 424
  43	  17	 261
  44	  44	 315
  45	  44	 462
  46	  19	 257
  47	  22	 281
  48	   2	 411
  49	   5	 284
  50	  11	 305
  51	  33	 443
  52	  70	 268
  53	  83	 289
  54	  69	 370
  55	  38	 284
  56	  34	 346
  57	   4	 460
  58	  31	 251
  59	  76	 289
  60	  48	 397
  61	  79	 257
  62	  35	 346
  63	  30	 379
  64	  86	 296
  65	   8	 325
  66	  84	 447
  67	  39	 269
  68	  16	 284
  69	  44	 461
  70	  65	 259
  71	   8	 280
  72	  53	 494
  73	  33	 251
  74	  39	 255
  75	  29	 483
  76	  34	 250
  77	  61	 267
  78	  78	 475
  79	  81	 258
  80	  76	 267
  81	  99	 402
  82	  54	 277
  83	  58	 321
  84	  17	 395
  85	  97	 269
  86	  54	 336
  87	  18	 436
  88	  84	 255
  89	  69	 309
  90	   3	 418
  91	  86	 285
  92	  40	 297
  93	  78	 408
  94	  72	 266
  95	  91	 326
  96	  14	 358
  97	  29	 264
  98	  63	 378
  99	  30	 471
 100	  97	 261
 101	  33	 268
 102	  72	 460
 103	  94	 250
 104	  81	 290
 105	  77	 368
 106	  45	 315
 107	  63	 317
 108	   6	 430
 109	  60	 269
 110	  72	 301
 111	   6	 477
 112	  49	 252
 113	  46	 271
 114	  50	 449
 115	  66	 263
 116	  60	 288
 117	  16	 483
 118	  20	 254
 119	  24	 263
;

set E :=
   0	   6
   0	  10
   0	  12
   0	  13
   0	  14
   0	  15
   0	  16
   0	  23
   0	  26
   0	  29
   0	  30
   0	  35
   0	  39
   0	  43
   0	  44
   0	  47
   0	  49
   0	  54
   0	  58
   0	  62
   0	  72
   0	  73
   0	  74
   0	  79
   0	  80
   0	  83
   0	  86
   0	  89
   0	  90
   0	  92
   0	  94
   0	  95
   0	  98
   0	 101
   0	 103
   0	 104
   0	 106
   0	 108
   0	 112
   0	 114
   1	   2
   1	   4
   1	  15
   1	  18
   1	  19
   1	  23
   1	  27
   1	  28
   1	  30
   1	  34
   1	  35
   1	  36
   1	  44
   1	  45
   1	  52
   1	  53
   1	  54
   1	  55
   1	  58
   1	  60
   1	  62
   1	  66
   1	  71
   1	  72
   1	  74
   1	  84
   1	  85
   1	  88
   1	  89
   1	  90
   1	  93
   1	  95
   1	 108
   1	 111
   1	 113
   1	 119
   2	   7
   2	   8
   2	  15
   2	  17
   2	  21
   2	  25
   2	  31
   2	  32
   2	  35
   2	  38
   2	  43
   2	  44
   2	  47
   2	  54
   2	  57
   2	  58
   2	  59
   2	  60
   2	  65
   2	  68
   2	  69
   2	  75
   2	  77
   2	  92
   2	  94
   2	  96
   2	 104
   2	 106
   2	 107
   2	 109
   2	 112
   2	 113
   2	 117
   3	   9
   3	  11
   3	  13
   3	  16
   3	  18
   3	  21
   3	  22
   3	  23
   3	  25
   3	  39
   3	  44
   3	  52
   3	  53
   3	  55
   3	  58
   3	  59
   3	  62
   3	  65
   3	  67
   3	  69
   3	  75
   3	  77
   3	  90
   3	 101
   3	 103
   3	 105
   3	 107
   3	 109
   3	 116
   4	   5
   4	  10
   4	  15
   4	  23
   4	  25
   4	  26
   4	  27
   4	  37
   4	  42
   4	  47
   4	  49
   4	  50
   4	  51
   4	  55
   4	  60
   4	  63
   4	  74
   4	  78
   4	  80
   4	  83
   4	  85
   4	  90
   4	  93
   4	 100
   4	 104
   4	 107
   4	 109
   4	 110
   4	 112
   4	 114
   4	 117
   4	 119
   5	   7
   5	  14
   5	  16
   5	  26
   5	  28
   5	  31
   5	  35
   5	  39
   5	  40
   5	  43
   5	  46
   5	  47
   5	  48
   5	  61
   5	  70
   5	  71
   5	  76
   5	  80
   5	  85
   5	  89
   5	  91
   5	 107
   5	 109
   5	 111
   5	 117
   5	 118
   5	 119
   6	   7
   6	   8
   6	  11
   6	  13
   6	  14
   6	  20
   6	  23
   6	  27
   6	  35
   6	  38
   6	  39
   6	  41
   6	  43
   6	  52
   6	  64
   6	  65
   6	  70
   6	  74
   6	  77
   6	  87
   6	  91
   6	  99
   6	 100
   6	 102
   6	 105
   6	 110
   6	 117
   7	   8
   7	  21
   7	  29
   7	  31
   7	  32
   7	  39
   7	  40
   7	  45
   7	  47
   7	  48
   7	  50
   7	  51
   7	  52
   7	  53
   7	  54
   7	  65
   7	  68
   7	  74
   7	  77
   7	  84
   7	  88
   7	  89
   7	  98
   7	 106
   7	 108
   7	 111
   8	  10
   8	  12
   8	  14
   8	  17
   8	  25
   8	  26
   8	  28
   8	  34
   8	  57
   8	  67
   8	  70
   8	  71
   8	  74
   8	  75
   8	  76
   8	  77
   8	  80
   8	  84
   8	  88
   8	  91
   8	  93
   8	  94
   8	  95
   8	  97
   8	  98
   8	 101
   8	 103
   8	 106
   8	 107
   8	 108
   8	 113
   8	 116
   9	  11
   9	  14
   9	  15
   9	  18
   9	  20
   9	  21
   9	  22
   9	  26
   9	  32
   9	  35
   9	  39
   9	  44
   9	  46
   9	  50
   9	  52
   9	  54
   9	  58
   9	  62
   9	  65
   9	  66
   9	  68
   9	  72
   9	  73
   9	  79
   9	  88
   9	  89
   9	  91
   9	  93
   9	  96
   9	 100
   9	 107
   9	 112
   9	 116
  10	  14
  10	  16
  10	  17
  10	  21
  10	  24
  10	  26
  10	  29
  10	  30
  10	  36
  10	  42
  10	  48
  10	  49
  10	  54
  10	  55
  10	  58
  10	  59
  10	  63
  10	  69
  10	  75
  10	  77
  10	  82
  10	  88
  10	  89
  10	  90
  10	  98
  10	 102
  10	 104
  10	 106
  10	 107
  10	 108
  10	 113
  10	 114
  10	 116
  11	  12
  11	  14
  11	  16
  11	  18
  11	  24
  11	  37
  11	  39
  11	  40
  11	  42
  11	  43
  11	  50
  11	  51
  11	  54
  11	  56
  11	  57
  11	  59
  11	  67
  11	  68
  11	  73
  11	  75
  11	  78
  11	  82
  11	  87
  11	  88
  11	  90
  11	  92
  11	  93
  11	  94
  11	 100
  11	 101
  11	 102
  11	 106
  11	 107
  11	 110
  11	 113
  11	 114
  11	 115
  12	  14
  12	  17
  12	  19
  12	  23
  12	  27
  12	  28
  12	  31
  12	  37
  12	  41
  12	  44
  12	  45
  12	  50
  12	  52
  12	  54
  12	  64
  12	  69
  12	  72
  12	  77
  12	  78
  12	  79
  12	  87
  12	  91
  12	  94
  12	  95
  12	 100
  12	 107
  12	 109
  12	 110
  12	 113
  12	 114
  12	 115
  12	 117
  12	 118
  12	 119
  13	  14
  13	  16
  13	  20
  13	  22
  13	  23
  13	  30
  13	  33
  13	  34
  13	  36
  13	  38
  13	  40
  13	  41
  13	  45
  13	  46
  13	  47
  13	  48
  13	  50
  13	  52
  13	  56
  13	  58
  13	  63
  13	  66
  13	  68
  13	  72
  13	  75
  13	  78
  13	  85
  13	  87
  13	  89
  13	  91
  13	  93
  13	  97
  13	 101
  13	 104
  13	 109
  14	  16
  14	  21
  14	  22
  14	  23
  14	  27
  14	  37
  14	  40
  14	  44
  14	  56
  14	  58
  14	  59
  14	  60
  14	  67
  14	  74
  14	  81
  14	  86
  14	  92
  14	  95
  14	  99
  14	 101
  14	 102
  14	 105
  14	 113
  14	 117
  14	 118
  15	  16
  15	  21
  15	  22
  15	  23
  15	  24
  15	  28
  15	  29
  15	  35
  15	  38
  15	  39
  15	  41
  15	  45
  15	  48
  15	  51
  15	  52
  15	  53
  15	  54
  15	  55
  15	  59
  15	  62
  15	  63
  15	  65
  15	  68
  15	  75
  15	  79
  15	  81
  15	  83
  15	  84
  15	  90
  15	  91
  15	  92
  15	  98
  15	 102
  15	 111
  15	 113
  15	 115
  15	 116
  15	 118
  15	 119
  16	  18
  16	  24
  16	  31
  16	  36
  16	  45
  16	  50
  16	  55
  16	  57
  16	  59
  16	  60
  16	  62
  16	  63
  16	  64
  16	  66
  16	  69
  16	  81
  16	  87
  16	  88
  16	  90
  16	  91
  16	  93
  16	  94
  16	  96
  16	  97
  16	 101
  16	 102
  16	 103
  16	 110
  16	 113
  16	 117
  17	  19
  17	  25
  17	  26
  17	  30
  17	  39
  17	  47
  17	  49
  17	  51
  17	  53
  17	  58
  17	  60
  17	  66
  17	  67
  17	  71
  17	  73
  17	  81
  17	  82
  17	  85
  17	  86
  17	  88
  17	  90
  17	  91
  17	  94
  17	  95
  17	  96
  17	  98
  17	 100
  17	 101
  17	 102
  17	 105
  17	 113
  17	 114
  18	  19
  18	  22
  18	  23
  18	  27
  18	  28
  18	  29
  18	  33
  18	  38
  18	  40
  18	  43
  18	  46
  18	  49
  18	  51
  18	  55
  18	  63
  18	  64
  18	  80
  18	  81
  18	  84
  18	  88
  18	  89
  18	  91
  18	  93
  18	  96
  18	  99
  18	 104
  18	 105
  18	 107
  18	 113
  18	 114
  18	 115
  18	 118
  19	  21
  19	  26
  19	  31
  19	  32
  19	  35
  19	  41
  19	  42
  19	  51
  19	  59
  19	  62
  19	  63
  19	  64
  19	  72
  19	  73
  19	  75
  19	  78
  19	  88
  19	  89
  19	  90
  19	  98
  19	 101
  19	 103
  19	 108
  19	 111
  19	 112
  19	 117
  19	 118
  20	  22
  20	  24
  20	  25
  20	  29
  20	  34
  20	  35
  20	  36
  20	  37
  20	  38
  20	  39
  20	  40
  20	  41
  20	  46
  20	  57
  20	  59
  20	  62
  20	  63
  20	  71
  20	  76
  20	  77
  20	  80
  20	  82
  20	  84
  20	  85
  20	  87
  20	  91
  20	  92
  20	  93
  20	  94
  20	  95
  20	  96
  20	 103
  20	 108
  20	 113
  21	  23
  21	  27
  21	  32
  21	  36
  21	  37
  21	  40
  21	  41
  21	  42
  21	  48
  21	  50
  21	  54
  21	  59
  21	  61
  21	  68
  21	  71
  21	  73
  21	  74
  21	  89
  21	  93
  21	  96
  21	  97
  21	  99
  21	 105
  21	 108
  21	 110
  21	 111
  21	 112
  21	 115
  21	 117
  21	 119
  22	  23
  22	  24
  22	  25
  22	  27
  22	  28
  22	  30
  22	  35
  22	  37
  22	  43
  22	  45
  22	  47
  22	  53
  22	  54
  22	  56
  22	  58
  22	  60
  22	  63
  22	  70
  22	  76
  22	  78
  22	  79
  22	  84
  22	  85
  22	  86
  22	  88
  22	  94
  22	  95
  22	  96
  22	  97
  22	  98
  22	  99
  22	 102
  22	 103
  22	 108
  22	 113
  22	 118
  23	  28
  23	  29
  23	  34
  23	  38
  23	  39
  23	  42
  23	  43
  23	  47
  23	  49
  23	  51
  23	  53
  23	  54
  23	  59
  23	  64
  23	  65
  23	  69
  23	  71
  23	  81
  23	  85
  23	  86
  23	  88
  23	  89
  23	  94
  23	 100
  23	 104
  23	 106
  23	 108
  23	 109
  23	 111
  23	 117
  23	 118
  24	  26
  24	  28
  24	  31
  24	  41
  24	  42
  24	  43
  24	  44
  24	  48
  24	  50
  24	  51
  24	  58
  24	  60
  24	  64
  24	  66
  24	  68
  24	  71
  24	  75
  24	  79
  24	  84
  24	  86
  24	  88
  24	  89
  24	  96
  24	  98
  24	  99
  24	 100
  24	 101
  24	 113
  24	 114
  25	  29
  25	  30
  25	  32
  25	  35
  25	  36
  25	  37
  25	  42
  25	  43
  25	  44
  25	  47
  25	  51
  25	  52
  25	  72
  25	  74
  25	  77
  25	  80
  25	  87
  25	  91
  25	  95
  25	  96
  25	  98
  25	 100
  25	 108
  25	 116
  25	 117
  26	  27
  26	  28
  26	  29
  26	  34
  26	  35
  26	  40
  26	  41
  26	  43
  26	  48
  26	  49
  26	  50
  26	  53
  26	  56
  26	  62
  26	  69
  26	  73
  26	  75
  26	  77
  26	  78
  26	  80
  26	  91
  26	  96
  26	  97
  26	  98
  26	 100
  26	 101
  26	 102
  26	 104
  26	 106
  26	 109
  26	 115
  26	 117
  27	  28
  27	  33
  27	  37
  27	  41
  27	  43
  27	  45
  27	  49
  27	  53
  27	  54
  27	  56
  27	  57
  27	  59
  27	  60
  27	  62
  27	  74
  27	  76
  27	  79
  27	  81
  27	  83
  27	  88
  27	  89
  27	 100
  27	 101
  27	 102
  27	 105
  27	 107
  27	 108
  27	 111
  28	  33
  28	  34
  28	  35
  28	  36
  28	  38
  28	  45
  28	  47
  28	  50
  28	  52
  28	  53
  28	  54
  28	  62
  28	  65
  28	  72
  28	  75
  28	  81
  28	  87
  28	  90
  28	  91
  28	  92
  28	  97
  28	 103
  28	 109
  28	 110
  28	 115
  28	 118
  29	  34
  29	  37
  29	  38
  29	  41
  29	  43
  29	  45
  29	  48
  29	  49
  29	  51
  29	  52
  29	  57
  29	  58
  29	  60
  29	  63
  29	  64
  29	  65
  29	  71
  29	  72
  29	  73
  29	  74
  29	  76
  29	  79
  29	  80
  29	  89
  29	  90
  29	  94
  29	 103
  29	 104
  29	 105
  29	 106
  29	 112
  29	 114
  29	 116
  30	  32
  30	  34
  30	  37
  30	  38
  30	  39
  30	  43
  30	  47
  30	  48
  30	  51
  30	  52
  30	  56
  30	  57
  30	  61
  30	  74
  30	  75
  30	  76
  30	  77
  30	  81
  30	  88
  30	  90
  30	  92
  30	  95
  30	  96
  30	 110
  30	 111
  30	 112
  30	 114
  30	 118
  31	  33
  31	  39
  31	  43
  31	  55
  31	  59
  31	  62
  31	  64
  31	  72
  31	  82
  31	  83
  31	  93
  31	  95
  31	  96
  31	  99
  31	 101
  31	 102
  31	 103
  31	 106
  31	 110
  31	 112
  31	 115
  31	 117
  32	  34
  32	  35
  32	  38
  32	  39
  32	  42
  32	  44
  32	  47
  32	  51
  32	  52
  32	  54
  32	  55
  32	  56
  32	  61
  32	  63
  32	  67
  32	  69
  32	  71
  32	  72
  32	  74
  32	  79
  32	  85
  32	  86
  32	  97
  32	 105
  32	 106
  32	 110
  32	 116
  32	 117
  33	  35
  33	  42
  33	  50
  33	  51
  33	  63
  33	  74
  33	  75
  33	  84
  33	  88
  33	  89
  33	  91
  33	  99
  33	 102
  33	 107
  33	 111
  33	 115
  33	 119
  34	  35
  34	  37
  34	  43
  34	  46
  34	  47
  34	  56
  34	  60
  34	  64
  34	  67
  34	  69
  34	  70
  34	  76
  34	  79
  34	  89
  34	  93
  34	  96
  34	 100
  34	 110
  34	 111
  34	 114
  35	  37
  35	  39
  35	  55
  35	  56
  35	  59
  35	  64
  35	  67
  35	  69
  35	  70
  35	  75
  35	  77
  35	  88
  35	  91
  35	  94
  35	  98
  35	  99
  35	 101
  35	 102
  35	 104
  35	 105
  35	 107
  35	 111
  35	 114
  35	 115
  36	  39
  36	  40
  36	  41
  36	  44
  36	  51
  36	  57
  36	  60
  36	  63
  36	  64
  36	  70
  36	  75
  36	  77
  36	  78
  36	  81
  36	  87
  36	  89
  36	  91
  36	  96
  36	  99
  36	 100
  36	 101
  36	 104
  36	 105
  36	 106
  36	 114
  36	 116
  36	 119
  37	  40
  37	  44
  37	  47
  37	  48
  37	  49
  37	  50
  37	  51
  37	  52
  37	  54
  37	  55
  37	  56
  37	  59
  37	  61
  37	  66
  37	  82
  37	  84
  37	  86
  37	  87
  37	  89
  37	  99
  37	 108
  37	 110
  37	 113
  37	 115
  37	 119
  38	  40
  38	  45
  38	  46
  38	  49
  38	  52
  38	  57
  38	  60
  38	  62
  38	  68
  38	  72
  38	  78
  38	  79
  38	  87
  38	  89
  38	  92
  38	  93
  38	  94
  38	  95
  38	  98
  38	 101
  38	 102
  38	 104
  38	 108
  38	 118
  38	 119
  39	  42
  39	  44
  39	  45
  39	  48
  39	  50
  39	  52
  39	  53
  39	  56
  39	  62
  39	  66
  39	  68
  39	  69
  39	  70
  39	  71
  39	  77
  39	  78
  39	  81
  39	  89
  39	  90
  39	  92
  39	  95
  39	 100
  39	 102
  39	 103
  39	 107
  39	 111
  39	 112
  39	 113
  39	 117
  40	  43
  40	  45
  40	  55
  40	  57
  40	  59
  40	  66
  40	  69
  40	  73
  40	  76
  40	  78
  40	  80
  40	  85
  40	  91
  40	  94
  40	  96
  40	  97
  40	  99
  40	 101
  40	 102
  40	 103
  40	 109
  40	 111
  40	 115
  40	 116
  40	 117
  41	  42
  41	  43
  41	  44
  41	  47
  41	  51
  41	  58
  41	  60
  41	  63
  41	  65
  41	  67
  41	  69
  41	  70
  41	  72
  41	  73
  41	  78
  41	  79
  41	  80
  41	  86
  41	  88
  41	  89
  41	  93
  41	  95
  41	  97
  41	  98
  41	  99
  41	 100
  41	 105
  41	 106
  41	 110
  41	 112
  41	 116
  42	  43
  42	  46
  42	  47
  42	  49
  42	  54
  42	  57
  42	  64
  42	  67
  42	  69
  42	  70
  42	  79
  42	  85
  42	  89
  42	  92
  42	  95
  42	  96
  42	  99
  42	 101
  42	 105
  42	 108
  42	 112
  42	 115
  43	  51
  43	  52
  43	  53
  43	  56
  43	  58
  43	  61
  43	  68
  43	  76
  43	  80
  43	  84
  43	  87
  43	  90
  43	  91
  43	  95
  43	  98
  43	 100
  43	 103
  43	 108
  43	 111
  43	 112
  43	 116
  44	  47
  44	  52
  44	  54
  44	  61
  44	  65
  44	  68
  44	  80
  44	  81
  44	  82
  44	  93
  44	 102
  44	 103
  44	 115
  44	 119
  45	  50
  45	  51
  45	  56
  45	  57
  45	  63
  45	  64
  45	  66
  45	  69
  45	  73
  45	  74
  45	  76
  45	  77
  45	  81
  45	  83
  45	  88
  45	  90
  45	  93
  45	  96
  45	 104
  45	 110
  45	 111
  45	 114
  45	 116
  45	 117
  45	 119
  46	  54
  46	  55
  46	  63
  46	  67
  46	  69
  46	  80
  46	  85
  46	  86
  46	  88
  46	  90
  46	  95
  46	  97
  46	  99
  46	 100
  46	 104
  46	 105
  46	 107
  46	 111
  46	 113
  46	 116
  46	 118
  46	 119
  47	  55
  47	  59
  47	  61
  47	  62
  47	  63
  47	  67
  47	  71
  47	  72
  47	  75
  47	  76
  47	  84
  47	  85
  47	  86
  47	  88
  47	  90
  47	  92
  47	  97
  47	  98
  47	  99
  47	 107
  47	 109
  47	 116
  47	 117
  47	 118
  48	  51
  48	  59
  48	  61
  48	  69
  48	  71
  48	  73
  48	  74
  48	  78
  48	  79
  48	  88
  48	  90
  48	  92
  48	  93
  48	  94
  48	  97
  48	 102
  48	 106
  48	 107
  48	 108
  48	 109
  48	 113
  48	 117
  49	  50
  49	  51
  49	  57
  49	  63
  49	  64
  49	  67
  49	  69
  49	  71
  49	  72
  49	  80
  49	  84
  49	  85
  49	  87
  49	  92
  49	  96
  49	 104
  49	 112
  49	 113
  49	 117
  50	  51
  50	  52
  50	  54
  50	  55
  50	  59
  50	  64
  50	  66
  50	  67
  50	  75
  50	  77
  50	  78
  50	  83
  50	  84
  50	  86
  50	  88
  50	  96
  50	  97
  50	  98
  50	  99
  50	 101
  50	 104
  50	 106
  50	 108
  50	 111
  50	 114
  50	 115
  50	 116
  50	 117
  51	  52
  51	  53
  51	  56
  51	  59
  51	  63
  51	  64
  51	  68
  51	  69
  51	  71
  51	  77
  51	  80
  51	  82
  51	  83
  51	  90
  51	  95
  51	  99
  51	 100
  51	 101
  51	 103
  51	 105
  51	 106
  51	 114
  51	 116
  52	  56
  52	  58
  52	  59
  52	  61
  52	  67
  52	  69
  52	  70
  52	  71
  52	  73
  52	  74
  52	  78
  52	  82
  52	  83
  52	  94
  52	  95
  52	  96
  52	  99
  52	 109
  52	 110
  53	  54
  53	  57
  53	  59
  53	  62
  53	  64
  53	  67
  53	  74
  53	  78
  53	  80
  53	  81
  53	  82
  53	  83
  53	  87
  53	  89
  53	  92
  53	  93
  53	  94
  53	  95
  53	  99
  53	 104
  53	 111
  53	 112
  53	 113
  53	 116
  53	 117
  54	  56
  54	  57
  54	  58
  54	  60
  54	  61
  54	  64
  54	  65
  54	  67
  54	  70
  54	  71
  54	  74
  54	  79
  54	  87
  54	  89
  54	  95
  54	  96
  54	  97
  54	 110
  54	 112
  54	 114
  55	  68
  55	  71
  55	  72
  55	  80
  55	  84
  55	  87
  55	  97
  55	 100
  55	 102
  55	 103
  55	 105
  55	 107
  55	 109
  55	 110
  55	 111
  55	 114
  55	 117
  56	  70
  56	  75
  56	  76
  56	  82
  56	  84
  56	  94
  56	 100
  56	 101
  56	 104
  56	 106
  56	 107
  56	 110
  56	 114
  56	 118
  56	 119
  57	  59
  57	  62
  57	  68
  57	  73
  57	  74
  57	  76
  57	  77
  57	  79
  57	  82
  57	  87
  57	  94
  57	  95
  57	  98
  57	  99
  57	 104
  57	 110
  57	 114
  57	 115
  57	 119
  58	  59
  58	  63
  58	  71
  58	  72
  58	  75
  58	  77
  58	  84
  58	  85
  58	  86
  58	  87
  58	  94
  58	 104
  58	 105
  58	 107
  59	  68
  59	  73
  59	  74
  59	  75
  59	  76
  59	  81
  59	  85
  59	  86
  59	  87
  59	  94
  59	  96
  59	  98
  59	 103
  59	 110
  59	 111
  59	 116
  60	  61
  60	  64
  60	  68
  60	  72
  60	  76
  60	  78
  60	  83
  60	  85
  60	  86
  60	  87
  60	  89
  60	  91
  60	  92
  60	  93
  60	  98
  60	  99
  60	 102
  60	 105
  60	 106
  60	 114
  60	 119
  61	  63
  61	  64
  61	  68
  61	  69
  61	  73
  61	  74
  61	  75
  61	  77
  61	  87
  61	  95
  61	 101
  61	 111
  61	 114
  61	 116
  61	 117
  61	 118
  61	 119
  62	  64
  62	  66
  62	  67
  62	  70
  62	  72
  62	  74
  62	  80
  62	  84
  62	  88
  62	  91
  62	  95
  62	  96
  62	  98
  62	 100
  62	 102
  62	 104
  62	 105
  62	 108
  62	 111
  62	 113
  62	 114
  62	 117
  63	  64
  63	  65
  63	  70
  63	  84
  63	  86
  63	  90
  63	  91
  63	  99
  63	 100
  63	 102
  63	 115
  63	 118
  63	 119
  64	  65
  64	  68
  64	  72
  64	  77
  64	  79
  64	  83
  64	  88
  64	  90
  64	  99
  64	 105
  64	 108
  64	 113
  64	 118
  65	  67
  65	  71
  65	  73
  65	  74
  65	  75
  65	  79
  65	  80
  65	  81
  65	  83
  65	  84
  65	  86
  65	  87
  65	  90
  65	  91
  65	  93
  65	  98
  65	 102
  65	 104
  65	 106
  65	 112
  65	 113
  65	 117
  66	  71
  66	  73
  66	  76
  66	  77
  66	  79
  66	  82
  66	  90
  66	  94
  66	  95
  66	  97
  66	  99
  66	 100
  66	 101
  66	 105
  66	 112
  66	 115
  66	 117
  66	 119
  67	  69
  67	  74
  67	  76
  67	  80
  67	  85
  67	  93
  67	  95
  67	 107
  68	  70
  68	  71
  68	  72
  68	  77
  68	  78
  68	  79
  68	  82
  68	  87
  68	  90
  68	  97
  68	 100
  68	 104
  68	 107
  68	 111
  68	 115
  68	 116
  68	 117
  68	 119
  69	  72
  69	  73
  69	  76
  69	  79
  69	  81
  69	  82
  69	  89
  69	  90
  69	  95
  69	  97
  69	  99
  69	 104
  69	 105
  69	 106
  69	 107
  69	 112
  69	 113
  69	 115
  69	 116
  70	  73
  70	  74
  70	  79
  70	  85
  70	  86
  70	  87
  70	  93
  70	  94
  70	  99
  70	 100
  70	 102
  70	 106
  70	 117
  70	 118
  71	  82
  71	  87
  71	  89
  71	  90
  71	  92
  71	  94
  71	  95
  71	 102
  71	 103
  71	 107
  71	 117
  71	 119
  72	  73
  72	  77
  72	  79
  72	  82
  72	  84
  72	  86
  72	  88
  72	  99
  72	 100
  72	 101
  72	 104
  72	 109
  72	 110
  72	 114
  72	 116
  72	 118
  73	  75
  73	  76
  73	  78
  73	  81
  73	  82
  73	  85
  73	  87
  73	  92
  73	  97
  73	 106
  73	 109
  73	 111
  73	 112
  74	  77
  74	  80
  74	  83
  74	  90
  74	  93
  74	  96
  74	  98
  74	 102
  74	 106
  74	 107
  74	 109
  74	 111
  74	 117
  75	  84
  75	  86
  75	  90
  75	  93
  75	  94
  75	  96
  75	  99
  75	 101
  75	 103
  75	 104
  75	 105
  75	 108
  75	 114
  75	 115
  75	 116
  75	 119
  76	  80
  76	  82
  76	  85
  76	  87
  76	  89
  76	  93
  76	  95
  76	 105
  76	 106
  76	 107
  76	 109
  76	 117
  76	 118
  77	  80
  77	  86
  77	  89
  77	  91
  77	  95
  77	  96
  77	 108
  77	 113
  78	  80
  78	  81
  78	  86
  78	  89
  78	  90
  78	  91
  78	  93
  78	  96
  78	  98
  78	 103
  78	 105
  78	 106
  78	 107
  78	 111
  78	 113
  78	 114
  78	 119
  79	  81
  79	  82
  79	  84
  79	  86
  79	  88
  79	  89
  79	  91
  79	  96
  79	  97
  79	  98
  79	  99
  79	 105
  79	 107
  79	 111
  79	 113
  79	 116
  80	  82
  80	  90
  80	  94
  80	  97
  80	  99
  80	 103
  80	 106
  80	 107
  80	 111
  80	 117
  81	  87
  81	  88
  81	  97
  81	 100
  81	 101
  81	 102
  81	 106
  81	 108
  81	 118
  81	 119
  82	  83
  82	  85
  82	  87
  82	  90
  82	  92
  82	  93
  82	 102
  82	 105
  82	 111
  83	  85
  83	  86
  83	  87
  83	  88
  83	  95
  83	  96
  83	  97
  83	  98
  83	  99
  83	 101
  83	 102
  83	 103
  83	 109
  83	 112
  83	 114
  83	 117
  83	 118
  84	  87
  84	  88
  84	  89
  84	  91
  84	  98
  84	 100
  84	 102
  84	 104
  84	 106
  84	 108
  84	 109
  84	 115
  85	  92
  85	  93
  85	  94
  85	  95
  85	  96
  85	  99
  85	 105
  85	 108
  85	 116
  85	 118
  86	  96
  86	  97
  86	  98
  86	 100
  86	 103
  86	 106
  86	 108
  86	 110
  86	 117
  86	 119
  87	  88
  87	 104
  87	 106
  87	 113
  87	 117
  87	 119
  88	  89
  88	  93
  88	  94
  88	  96
  88	 102
  88	 112
  88	 114
  88	 116
  89	  94
  89	  95
  89	  96
  89	  97
  89	  98
  89	  99
  89	 102
  89	 109
  89	 110
  89	 111
  89	 113
  89	 114
  89	 115
  90	  94
  90	 105
  90	 109
  90	 118
  91	  94
  91	 101
  91	 108
  91	 116
  91	 119
  92	  93
  92	  96
  92	  97
  92	  99
  92	 105
  92	 111
  92	 113
  92	 114
  92	 116
  92	 118
  93	 106
  93	 109
  93	 110
  93	 115
  93	 116
  93	 118
  93	 119
  94	  95
  94	  97
  94	  98
  94	  99
  94	 101
  94	 103
  94	 107
  94	 113
  94	 116
  94	 118
  95	  97
  95	 100
  95	 101
  95	 102
  95	 104
  95	 106
  95	 109
  95	 110
  95	 116
  95	 118
  96	 102
  96	 103
  96	 108
  96	 109
  96	 111
  96	 114
  97	 101
  97	 106
  97	 107
  97	 108
  97	 112
  97	 117
  97	 118
  98	 105
  98	 106
  98	 107
  98	 110
  98	 114
  98	 119
  99	 103
  99	 104
  99	 108
  99	 111
  99	 113
  99	 115
  99	 119
 100	 101
 100	 108
 100	 114
 100	 115
 100	 119
 101	 102
 101	 104
 101	 110
 101	 111
 101	 114
 101	 117
 101	 118
 101	 119
 102	 104
 102	 105
 102	 107
 102	 108
 102	 109
 102	 112
 102	 114
 102	 115
 102	 119
 103	 106
 103	 107
 103	 108
 103	 118
 104	 107
 104	 108
 104	 109
 104	 113
 104	 115
 104	 116
 104	 117
 105	 107
 105	 108
 105	 109
 105	 111
 105	 113
 105	 117
 105	 118
 106	 111
 106	 112
 106	 116
 107	 113
 107	 114
 107	 118
 107	 119
 108	 109
 108	 116
 108	 117
 109	 112
 109	 119
 110	 114
 110	 116
 110	 119
 111	 114
 111	 117
 112	 113
 112	 115
 112	 116
 112	 117
 113	 117
 114	 115
 115	 118
 117	 118
;
